benchmarks/norm/simpleloopV2/simpleloopV2_norm_inv1_len3_1.smt2
;--------------------------------------------------------------------------
; Benchmark created with Zazu
; Benchmark: 		simpleloopV2_norm_inv1_len3_1
; Created:   		2022-01-05 21:36
; Generator of the ideal: 
; 		 x - y00 - x00 + y
; Testing invariant: -x*y + x^3*x00*y^3 - x*x00*y^3 + x^2*y^3 + x^3*y^3*y00 - x*y^3*y00 + x*x00 + x*y00 - x^3*y^4 - x^4*y^3 - x^2 + x*y^4
;--------------------------------------------------------------------------

(set-logic NIA)
(set-option :produce-proofs true)

(declare-const x00 Int)
(declare-const y00 Int)

(assert 
	(exists
		((x Int) (y Int))
		(and
			(= (+ (- x y00 x00) y) 0)

			(or
				(not (= (+ (- (+ (- (+ (- (+ (* (- 1) (- x 1) (+ y 1)) (* (- x 1) (- x 1) (- x 1) x00 (+ y 1) (+ y 1) (+ y 1))) (* (- x 1) x00 (+ y 1) (+ y 1) (+ y 1))) (* (- x 1) (- x 1) (+ y 1) (+ y 1) (+ y 1)) (* (- x 1) (- x 1) (- x 1) (+ y 1) (+ y 1) (+ y 1) y00)) (* (- x 1) (+ y 1) (+ y 1) (+ y 1) y00)) (* (- x 1) x00) (* (- x 1) y00)) (* (- x 1) (- x 1) (- x 1) (+ y 1) (+ y 1) (+ y 1) (+ y 1)) (* (- x 1) (- x 1) (- x 1) (- x 1) (+ y 1) (+ y 1) (+ y 1)) (* (- x 1) (- x 1))) (* (- x 1) (+ y 1) (+ y 1) (+ y 1) (+ y 1))) 0))
				(not (= (+ (- (+ (- (+ (- (+ (* (- 1) (+ x 1) (- y 1)) (* (+ x 1) (+ x 1) (+ x 1) x00 (- y 1) (- y 1) (- y 1))) (* (+ x 1) x00 (- y 1) (- y 1) (- y 1))) (* (+ x 1) (+ x 1) (- y 1) (- y 1) (- y 1)) (* (+ x 1) (+ x 1) (+ x 1) (- y 1) (- y 1) (- y 1) y00)) (* (+ x 1) (- y 1) (- y 1) (- y 1) y00)) (* (+ x 1) x00) (* (+ x 1) y00)) (* (+ x 1) (+ x 1) (+ x 1) (- y 1) (- y 1) (- y 1) (- y 1)) (* (+ x 1) (+ x 1) (+ x 1) (+ x 1) (- y 1) (- y 1) (- y 1)) (* (+ x 1) (+ x 1))) (* (+ x 1) (- y 1) (- y 1) (- y 1) (- y 1))) 0))
			)
		)
	)
)
(check-sat)
(get-proof)
(exit)
